(set-logic QF_UF)
(declare-fun A0 () Bool)
(declare-fun A1 () Bool)
(declare-fun A2 () Bool)
(declare-fun A3 () Bool)
(declare-fun A4 () Bool)
(declare-fun A5 () Bool)
(declare-fun A6 () Bool)
(declare-fun A7 () Bool)
(declare-fun A8 () Bool)
(declare-fun A9 () Bool)
(declare-fun A10 () Bool)
(declare-fun A11 () Bool)
(declare-fun A12 () Bool)
(declare-fun A13 () Bool)
(declare-fun A14 () Bool)
(declare-fun A15 () Bool)
(declare-fun A16 () Bool)
(declare-fun A17 () Bool)
(declare-fun A18 () Bool)
(declare-fun A19 () Bool)
(declare-fun A20 () Bool)
(declare-fun A21 () Bool)
(declare-fun A22 () Bool)
(declare-fun A23 () Bool)
(declare-fun A24 () Bool)
(assert (let ((.def_0 (not A9))) (let ((.def_1 (not A6))) (let ((.def_2 (or .def_1 .def_0))) (let ((.def_3 (not .def_2))) (let ((.def_4 (and A0 A4))) (let ((.def_5 (and .def_4 .def_3))) (let ((.def_6 (not A11))) (let ((.def_7 (not A5))) (let ((.def_8 (or .def_7 .def_6))) (let ((.def_9 (and A3 A11))) (let ((.def_10 (not .def_9))) (let ((.def_11 (and .def_10 .def_8))) (let ((.def_12 (or .def_11 .def_5))) (let ((.def_13 (not .def_12))) (let ((.def_14 (or A15 A6))) (let ((.def_15 (not .def_14))) (let ((.def_16 (not A4))) (let ((.def_17 (or .def_16 A2))) (let ((.def_18 (or .def_17 .def_15))) (let ((.def_19 (not A18))) (let ((.def_20 (or A19 .def_19))) (let ((.def_21 (or A6 A8))) (let ((.def_22 (and .def_21 .def_20))) (let ((.def_23 (or .def_22 .def_18))) (let ((.def_24 (not .def_23))) (let ((.def_25 (or .def_24 .def_13))) (let ((.def_26 (not .def_25))) (let ((.def_27 (not A23))) (let ((.def_28 (and .def_27 A8))) (let ((.def_29 (not .def_28))) (let ((.def_30 (and A7 A22))) (let ((.def_31 (not .def_30))) (let ((.def_32 (and .def_31 .def_29))) (let ((.def_33 (not A12))) (let ((.def_34 (and .def_33 A23))) (let ((.def_35 (or A12 A22))) (let ((.def_36 (or .def_35 .def_34))) (let ((.def_37 (not .def_36))) (let ((.def_38 (= .def_37 .def_32))) (let ((.def_39 (not .def_38))) (let ((.def_40 (not A22))) (let ((.def_41 (or .def_40 A15))) (let ((.def_42 (not .def_41))) (let ((.def_43 (not A13))) (let ((.def_44 (or A11 .def_43))) (let ((.def_45 (not .def_44))) (let ((.def_46 (or .def_45 .def_42))) (let ((.def_47 (not .def_46))) (let ((.def_48 (or .def_16 A7))) (let ((.def_49 (or A15 A0))) (let ((.def_50 (and .def_49 .def_48))) (let ((.def_51 (not .def_50))) (let ((.def_52 (or .def_51 .def_47))) (let ((.def_53 (and .def_52 .def_39))) (let ((.def_54 (and .def_53 .def_26))) (let ((.def_55 (or A6 .def_40))) (let ((.def_56 (not .def_55))) (let ((.def_57 (or A0 A19))) (let ((.def_58 (not .def_57))) (let ((.def_59 (or .def_58 .def_56))) (let ((.def_60 (not .def_59))) (let ((.def_61 (or A12 A4))) (let ((.def_62 (not .def_61))) (let ((.def_63 (not A8))) (let ((.def_64 (and .def_63 A20))) (let ((.def_65 (or .def_64 .def_62))) (let ((.def_66 (or .def_65 .def_60))) (let ((.def_67 (and A13 A23))) (let ((.def_68 (not A3))) (let ((.def_69 (= A19 .def_68))) (let ((.def_70 (and .def_69 .def_67))) (let ((.def_71 (or .def_6 A22))) (let ((.def_72 (or .def_7 .def_7))) (let ((.def_73 (not .def_72))) (let ((.def_74 (and .def_73 .def_71))) (let ((.def_75 (not .def_74))) (let ((.def_76 (or .def_75 .def_70))) (let ((.def_77 (not .def_76))) (let ((.def_78 (and .def_77 .def_66))) (let ((.def_79 (or A22 A15))) (let ((.def_80 (= A10 .def_27))) (let ((.def_81 (and .def_80 .def_79))) (let ((.def_82 (not .def_81))) (let ((.def_83 (or .def_19 A5))) (let ((.def_84 (not .def_83))) (let ((.def_85 (not A20))) (let ((.def_86 (and A3 .def_85))) (let ((.def_87 (or .def_86 .def_84))) (let ((.def_88 (not .def_87))) (let ((.def_89 (and .def_88 .def_82))) (let ((.def_90 (or A21 A8))) (let ((.def_91 (not A17))) (let ((.def_92 (= .def_85 .def_91))) (let ((.def_93 (not .def_92))) (let ((.def_94 (or .def_93 .def_90))) (let ((.def_95 (and A1 .def_7))) (let ((.def_96 (and .def_6 A6))) (let ((.def_97 (or .def_96 .def_95))) (let ((.def_98 (not .def_97))) (let ((.def_99 (or .def_98 .def_94))) (let ((.def_100 (or .def_99 .def_89))) (let ((.def_101 (not .def_100))) (let ((.def_102 (and .def_101 .def_78))) (let ((.def_103 (= .def_102 .def_54))) (let ((.def_104 (not .def_103))) (let ((.def_105 (not A7))) (let ((.def_106 (and A4 .def_105))) (let ((.def_107 (not .def_106))) (let ((.def_108 (not A14))) (let ((.def_109 (or A8 .def_108))) (let ((.def_110 (or .def_109 .def_107))) (let ((.def_111 (not .def_110))) (let ((.def_112 (not A16))) (let ((.def_113 (and A10 .def_112))) (let ((.def_114 (= .def_68 .def_16))) (let ((.def_115 (not .def_114))) (let ((.def_116 (and .def_115 .def_113))) (let ((.def_117 (not .def_116))) (let ((.def_118 (or .def_117 .def_111))) (let ((.def_119 (not .def_118))) (let ((.def_120 (not A0))) (let ((.def_121 (and A2 .def_120))) (let ((.def_122 (not .def_121))) (let ((.def_123 (or .def_68 A18))) (let ((.def_124 (and .def_123 .def_122))) (let ((.def_125 (not .def_124))) (let ((.def_126 (not A10))) (let ((.def_127 (= .def_126 A0))) (let ((.def_128 (and A16 A7))) (let ((.def_129 (and .def_128 .def_127))) (let ((.def_130 (not .def_129))) (let ((.def_131 (or .def_130 .def_125))) (let ((.def_132 (and .def_131 .def_119))) (let ((.def_133 (not .def_132))) (let ((.def_134 (and A13 A16))) (let ((.def_135 (and A20 A21))) (let ((.def_136 (not .def_135))) (let ((.def_137 (or .def_136 .def_134))) (let ((.def_138 (or .def_1 A22))) (let ((.def_139 (or A22 A5))) (let ((.def_140 (or .def_139 .def_138))) (let ((.def_141 (or .def_140 .def_137))) (let ((.def_142 (and .def_1 A8))) (let ((.def_143 (not .def_142))) (let ((.def_144 (and A23 A3))) (let ((.def_145 (and .def_144 .def_143))) (let ((.def_146 (and A7 A20))) (let ((.def_147 (not A21))) (let ((.def_148 (not A1))) (let ((.def_149 (or .def_148 .def_147))) (let ((.def_150 (not .def_149))) (let ((.def_151 (and .def_150 .def_146))) (let ((.def_152 (or .def_151 .def_145))) (let ((.def_153 (and .def_152 .def_141))) (let ((.def_154 (not .def_153))) (let ((.def_155 (and .def_154 .def_133))) (let ((.def_156 (not .def_155))) (let ((.def_157 (and .def_40 A21))) (let ((.def_158 (not .def_157))) (let ((.def_159 (and .def_147 A18))) (let ((.def_160 (or .def_159 .def_158))) (let ((.def_161 (not .def_160))) (let ((.def_162 (and .def_0 A7))) (let ((.def_163 (or A8 .def_43))) (let ((.def_164 (and .def_163 .def_162))) (let ((.def_165 (or .def_164 .def_161))) (let ((.def_166 (= A23 .def_1))) (let ((.def_167 (and A2 .def_91))) (let ((.def_168 (or .def_167 .def_166))) (let ((.def_169 (or A9 A19))) (let ((.def_170 (not .def_169))) (let ((.def_171 (not A19))) (let ((.def_172 (or .def_171 A14))) (let ((.def_173 (not .def_172))) (let ((.def_174 (or .def_173 .def_170))) (let ((.def_175 (not .def_174))) (let ((.def_176 (or .def_175 .def_168))) (let ((.def_177 (and .def_176 .def_165))) (let ((.def_178 (not .def_177))) (let ((.def_179 (and .def_148 .def_108))) (let ((.def_180 (or A3 A6))) (let ((.def_181 (not .def_180))) (let ((.def_182 (or .def_181 .def_179))) (let ((.def_183 (not .def_182))) (let ((.def_184 (not A2))) (let ((.def_185 (and .def_184 A19))) (let ((.def_186 (= A2 A12))) (let ((.def_187 (not .def_186))) (let ((.def_188 (or .def_187 .def_185))) (let ((.def_189 (or .def_188 .def_183))) (let ((.def_190 (or A23 A12))) (let ((.def_191 (not .def_190))) (let ((.def_192 (or .def_19 A16))) (let ((.def_193 (not .def_192))) (let ((.def_194 (or .def_193 .def_191))) (let ((.def_195 (and A20 A1))) (let ((.def_196 (not .def_195))) (let ((.def_197 (and .def_108 .def_120))) (let ((.def_198 (or .def_197 .def_196))) (let ((.def_199 (or .def_198 .def_194))) (let ((.def_200 (not .def_199))) (let ((.def_201 (and .def_200 .def_189))) (let ((.def_202 (not .def_201))) (let ((.def_203 (or .def_202 .def_178))) (let ((.def_204 (= .def_203 .def_156))) (let ((.def_205 (not .def_204))) (let ((.def_206 (or .def_205 .def_104))) (let ((.def_207 (or .def_108 .def_108))) (let ((.def_208 (not .def_207))) (let ((.def_209 (or .def_27 A0))) (let ((.def_210 (or .def_209 .def_208))) (let ((.def_211 (not .def_210))) (let ((.def_212 (and A9 A5))) (let ((.def_213 (and A7 .def_85))) (let ((.def_214 (and .def_213 .def_212))) (let ((.def_215 (or .def_214 .def_211))) (let ((.def_216 (and .def_43 .def_7))) (let ((.def_217 (and .def_19 A6))) (let ((.def_218 (or .def_217 .def_216))) (let ((.def_219 (not .def_218))) (let ((.def_220 (or A18 .def_1))) (let ((.def_221 (and .def_91 .def_43))) (let ((.def_222 (not .def_221))) (let ((.def_223 (or .def_222 .def_220))) (let ((.def_224 (not .def_223))) (let ((.def_225 (or .def_224 .def_219))) (let ((.def_226 (or .def_225 .def_215))) (let ((.def_227 (or A19 .def_33))) (let ((.def_228 (not .def_227))) (let ((.def_229 (or A12 A20))) (let ((.def_230 (not .def_229))) (let ((.def_231 (and .def_230 .def_228))) (let ((.def_232 (or .def_171 .def_19))) (let ((.def_233 (not .def_232))) (let ((.def_234 (not A24))) (let ((.def_235 (and .def_234 .def_43))) (let ((.def_236 (not .def_235))) (let ((.def_237 (or .def_236 .def_233))) (let ((.def_238 (= .def_237 .def_231))) (let ((.def_239 (and .def_19 .def_108))) (let ((.def_240 (or .def_112 .def_0))) (let ((.def_241 (not .def_240))) (let ((.def_242 (= .def_241 .def_239))) (let ((.def_243 (and .def_27 A0))) (let ((.def_244 (or A18 A6))) (let ((.def_245 (not .def_244))) (let ((.def_246 (and .def_245 .def_243))) (let ((.def_247 (not .def_246))) (let ((.def_248 (and .def_247 .def_242))) (let ((.def_249 (not .def_248))) (let ((.def_250 (and .def_249 .def_238))) (let ((.def_251 (not .def_250))) (let ((.def_252 (or .def_251 .def_226))) (let ((.def_253 (not .def_252))) (let ((.def_254 (not A15))) (let ((.def_255 (and A9 .def_254))) (let ((.def_256 (and .def_43 A19))) (let ((.def_257 (not .def_256))) (let ((.def_258 (and .def_257 .def_255))) (let ((.def_259 (not .def_258))) (let ((.def_260 (or A16 A10))) (let ((.def_261 (or A22 A20))) (let ((.def_262 (not .def_261))) (let ((.def_263 (or .def_262 .def_260))) (let ((.def_264 (and .def_263 .def_259))) (let ((.def_265 (or .def_33 .def_126))) (let ((.def_266 (not .def_265))) (let ((.def_267 (and .def_14 .def_266))) (let ((.def_268 (not .def_267))) (let ((.def_269 (or .def_120 A15))) (let ((.def_270 (and .def_63 .def_40))) (let ((.def_271 (or .def_270 .def_269))) (let ((.def_272 (and .def_271 .def_268))) (let ((.def_273 (and .def_272 .def_264))) (let ((.def_274 (not .def_273))) (let ((.def_275 (and .def_68 .def_33))) (let ((.def_276 (not .def_275))) (let ((.def_277 (and A24 .def_108))) (let ((.def_278 (not .def_277))) (let ((.def_279 (or .def_278 .def_276))) (let ((.def_280 (not .def_279))) (let ((.def_281 (and .def_234 A8))) (let ((.def_282 (or .def_85 .def_68))) (let ((.def_283 (not .def_282))) (let ((.def_284 (or .def_283 .def_281))) (let ((.def_285 (or .def_284 .def_280))) (let ((.def_286 (and .def_108 .def_16))) (let ((.def_287 (not .def_286))) (let ((.def_288 (and A6 .def_184))) (let ((.def_289 (or .def_288 .def_287))) (let ((.def_290 (or A18 .def_68))) (let ((.def_291 (or .def_254 .def_19))) (let ((.def_292 (not .def_291))) (let ((.def_293 (or .def_292 .def_290))) (let ((.def_294 (not .def_293))) (let ((.def_295 (or .def_294 .def_289))) (let ((.def_296 (or .def_295 .def_285))) (let ((.def_297 (or .def_296 .def_274))) (let ((.def_298 (and .def_297 .def_253))) (let ((.def_299 (or A22 .def_148))) (let ((.def_300 (not .def_299))) (let ((.def_301 (= A17 .def_120))) (let ((.def_302 (not .def_301))) (let ((.def_303 (or .def_302 .def_300))) (let ((.def_304 (not .def_303))) (let ((.def_305 (and A5 A10))) (let ((.def_306 (not .def_305))) (let ((.def_307 (or A10 A0))) (let ((.def_308 (not .def_307))) (let ((.def_309 (or .def_308 .def_306))) (let ((.def_310 (not .def_309))) (let ((.def_311 (or .def_310 .def_304))) (let ((.def_312 (and .def_43 .def_112))) (let ((.def_313 (not .def_312))) (let ((.def_314 (and A18 .def_184))) (let ((.def_315 (= .def_314 .def_313))) (let ((.def_316 (not .def_315))) (let ((.def_317 (or A0 A3))) (let ((.def_318 (not .def_317))) (let ((.def_319 (and A9 .def_112))) (let ((.def_320 (and .def_319 .def_318))) (let ((.def_321 (not .def_320))) (let ((.def_322 (or .def_321 .def_316))) (let ((.def_323 (or .def_322 .def_311))) (let ((.def_324 (not .def_323))) (let ((.def_325 (and .def_0 .def_68))) (let ((.def_326 (or A23 .def_148))) (let ((.def_327 (not .def_326))) (let ((.def_328 (or .def_327 .def_325))) (let ((.def_329 (or A7 .def_234))) (let ((.def_330 (not .def_329))) (let ((.def_331 (and .def_27 A11))) (let ((.def_332 (or .def_331 .def_330))) (let ((.def_333 (or .def_332 .def_328))) (let ((.def_334 (not .def_333))) (let ((.def_335 (or A4 .def_148))) (let ((.def_336 (= .def_112 A23))) (let ((.def_337 (not .def_336))) (let ((.def_338 (= .def_337 .def_335))) (let ((.def_339 (not .def_338))) (let ((.def_340 (or .def_254 .def_234))) (let ((.def_341 (not .def_340))) (let ((.def_342 (or A24 .def_108))) (let ((.def_343 (or .def_342 .def_341))) (let ((.def_344 (and .def_343 .def_339))) (let ((.def_345 (not .def_344))) (let ((.def_346 (and .def_345 .def_334))) (let ((.def_347 (= .def_346 .def_324))) (let ((.def_348 (or .def_16 .def_7))) (let ((.def_349 (not .def_348))) (let ((.def_350 (and .def_6 A8))) (let ((.def_351 (not .def_350))) (let ((.def_352 (or .def_351 .def_349))) (let ((.def_353 (not .def_352))) (let ((.def_354 (and A1 .def_33))) (let ((.def_355 (not .def_354))) (let ((.def_356 (and A17 .def_6))) (let ((.def_357 (not .def_356))) (let ((.def_358 (or .def_357 .def_355))) (let ((.def_359 (and .def_358 .def_353))) (let ((.def_360 (or .def_234 .def_33))) (let ((.def_361 (not .def_360))) (let ((.def_362 (or A17 A13))) (let ((.def_363 (not .def_362))) (let ((.def_364 (= .def_363 .def_361))) (let ((.def_365 (not .def_364))) (let ((.def_366 (and A18 .def_108))) (let ((.def_367 (= .def_112 A7))) (let ((.def_368 (= .def_367 .def_366))) (let ((.def_369 (not .def_368))) (let ((.def_370 (or .def_369 .def_365))) (let ((.def_371 (not .def_370))) (let ((.def_372 (and .def_371 .def_359))) (let ((.def_373 (and .def_112 .def_112))) (let ((.def_374 (not .def_373))) (let ((.def_375 (and A3 A23))) (let ((.def_376 (or .def_375 .def_374))) (let ((.def_377 (not .def_376))) (let ((.def_378 (and .def_63 A1))) (let ((.def_379 (or A8 A6))) (let ((.def_380 (not .def_379))) (let ((.def_381 (or .def_380 .def_378))) (let ((.def_382 (not .def_381))) (let ((.def_383 (and .def_382 .def_377))) (let ((.def_384 (= .def_112 .def_40))) (let ((.def_385 (not .def_384))) (let ((.def_386 (and A3 .def_33))) (let ((.def_387 (not .def_386))) (let ((.def_388 (and .def_387 .def_385))) (let ((.def_389 (and .def_16 .def_63))) (let ((.def_390 (and A1 A19))) (let ((.def_391 (and .def_390 .def_389))) (let ((.def_392 (and .def_391 .def_388))) (let ((.def_393 (and .def_392 .def_383))) (let ((.def_394 (and .def_393 .def_372))) (let ((.def_395 (or .def_394 .def_347))) (let ((.def_396 (and .def_395 .def_298))) (let ((.def_397 (or .def_396 .def_206))) .def_397)))))))))))))))))))))))))))))))))))))))))))))))))))))))))))))))))))))))))))))))))))))))))))))))))))))))))))))))))))))))))))))))))))))))))))))))))))))))))))))))))))))))))))))))))))))))))))))))))))))))))))))))))))))))))))))))))))))))))))))))))))))))))))))))))))))))))))))))))))))))))))))))))))))))))))))))))))))))))))))))))))))))))))))))))))))))))))))))))))))))))))))))))))))))))))))))))))))))))))))))
(check-sat)
